/*
Kamil Sikorski
221481
*/

data;

set RodzajRopy := B1 B2;
set PolProdukt := Benzyna Olej Destylat Resztki;
set Produkt := PaliwaSilnikowe DomowePaliwaOlejowe CiezkiePaliwaOlejowe;

param KosztRopy :=
    B1 1300
    B2 1500;

param KosztReformowania := 10;

param KosztKrakowania := 20;

param WydajnoscReformowania : Benzyna Olej Destylat Resztki :=
                        B1  0.15    0.40 0.15     0.15  
                        B2  0.10    0.35 0.20     0.15;


param KosztProduktuReformowania : Benzyna Olej Destylat Resztki :=
        PaliwaSilnikowe         1       0    0        0          
        DomowePaliwaOlejowe     0       1    0        0  
        CiezkiePaliwaOlejowe    0       1    1        1;    

param KosztProduktuKrakowanie : Benzyna Olej Destylat Resztki :=
        PaliwaSilnikowe         1       0    0        0          
        DomowePaliwaOlejowe     0       1    0        0  
        CiezkiePaliwaOlejowe    0       0    0        1;    

param WydajnoscKrakowania : Benzyna Olej    Destylat    Resztki:=
                Benzyna     0       0       0           0
                Olej        0       0       0           0
                Destylat    0.5     0.2     0           0.06
                Resztki     0       0       0           0;




param MinimumProduktow := 
    PaliwaSilnikowe        200000
    DomowePaliwaOlejowe    400000
    CiezkiePaliwaOlejowe   250000;   
    
param ZawartoscSiarkiReformowania :=
    B1  0.2
    B2  1.2;

param ZawartoscSiarkiKrakowanie :=
    B1  0.3
    B2  1.5;

param MaxSiarki := 0.5;


end;
